
c turning on binary mode checking

c parsing input formula with 3656 variables and 22495 clauses

c finished parsing, read 85815 bytes from proof file

c detected empty clause; start verification via backward checking

c 56 of 22495 clauses in core                            

c 16 of 1971 lemmas in core using 87 resolution steps

c 0 RAT lemmas in core; 10 redundant literals in core lemmas

s VERIFIED

c verification time: 0.056 seconds
